p cnf 37 13
-9 14 2 23 -3 0
-22 2 4 -10 -28 0
34 16 11 -28 -10 0
1 -8 -4 18 -9 0
23 22 -7 3 -32 0
11 1 13 9 -2 0
-20 -16 28 29 -24 0
-5 15 2 -10 -30 0
1 36 33 23 -14 0
-20 -37 8 -2 9 0
26 -8 -2 1 -25 0
-7 13 2 11 -9 0
1 -13 -2 16 -5 0
